300
[30,33,34,35,37,38,39,40,41,42,43,44,45,46,47,48,49,50,51,52,53,54,56,57,59,60,62,64,68,69,70,72,73,74,75,76,80,84,85,87,88,91,94,95,96,97,98,100,101,102,105,106,108,109,110,112,113,115,116,118,119,120,121,123,125,126,127,131,132,133,134,135,136,137,140,141,144,145,146,147,148,149,150,152,153,154,156,159,160,161,162,163,164,165,166,167,168,170,172,175,176,178,179,181,182,186,189,190,191,192,194,196,197,198,199,200,203,204,205,207,209,210]
[1,1,1,1,1,1,1,1,1,3,3,3,2,2,1,2,2,1,2,3,1,1,1,1,2,3,1,3,2,2,1,1,1,1,1,1,1,1,3,2,1,1,1,1,1,3,1,2,2,1,1,2,1,3,1,2,1,2,3,2,3,3,2,2,2,3,1,2,1,1,3,1,1,5,1,1,2,3,1,2,2,1,2,1,1,2,1,1,1,1,3,3,2,2,2,1,1,1,2,1,2,1,1,1,1,1,3,4,1,1,2,1,1,1,5,1,1,1,1,1,1,2]
